Solver command line: ['C:\\gurobi1002\\win64\\bin\\gurobi.bat']

Set parameter Username
Academic license - for non-commercial use only - expires 2024-08-20
Read LP format model from file C:\Users\mhafeman\AppData\Local\Temp\tmpp67pzszj.pyomo.lp
Reading time = 1.34 seconds
obj: 297841 rows, 262799 columns, 709547 nonzeros
Gurobi Optimizer version 10.0.2 build v10.0.2rc0 (win64)

CPU model: AMD Ryzen 7 3800X 8-Core Processor, instruction set [SSE2|AVX|AVX2]
Thread count: 8 physical cores, 16 logical processors, using up to 16 threads

Optimize a model with 297841 rows, 262799 columns and 709547 nonzeros
Model fingerprint: 0xc258d1c0
Model has 8759 quadratic constraints
Variable types: 201480 continuous, 61319 integer (43800 binary)
Coefficient statistics:
  Matrix range     [1e-04, 3e+02]
  QMatrix range    [1e+00, 1e+00]
  Objective range  [1e-02, 6e+02]
  Bounds range     [1e+00, 3e+00]
  RHS range        [1e-03, 1e+03]
Presolve removed 205443 rows and 177842 columns
Presolve time: 0.93s
Presolved: 92398 rows, 84957 columns, 219834 nonzeros
Variable types: 42479 continuous, 42478 integer (42478 binary)
Found heuristic solution: objective -1.06220e+08
Deterministic concurrent LP optimizer: primal and dual simplex
Showing first log only...

Concurrent spin time: 0.00s

Solved with dual simplex

Root relaxation: objective -1.226421e+08, 11379 iterations, 1.03 seconds (2.10 work units)

    Nodes    |    Current Node    |     Objective Bounds      |     Work
 Expl Unexpl |  Obj  Depth IntInf | Incumbent    BestBd   Gap | It/Node Time

*    0     0               0    -1.22642e+08 -1.226e+08  0.00%     -    2s

Explored 1 nodes (11379 simplex iterations) in 2.43 seconds (3.99 work units)
Thread count was 16 (of 16 available processors)

Solution count 2: -1.22642e+08 -1.0622e+08 
No other solutions better than -1.22642e+08

Optimal solution found (tolerance 1.00e-04)
Best objective -1.226420900950e+08, best bound -1.226420900950e+08, gap 0.0000%

